# Original model from Berendsen et al, J Phys Chem 91:6269 (1987)
# Charges and geometry are specified in the "data." file.

mass 1 1.00794 # H
mass 2 15.9994 # O

pair_style lj/cut/tip4p/long 2 1 1 1 0.1546 12.0
pair_modify tail yes
kspace_style pppm/tip4p 1.0e-5

pair_coeff 1 1 0.00000  0.000
pair_coeff 1 2 0.00000  0.000
pair_coeff 2 2 0.18520 3.1589

bond_style harmonic
bond_coeff 1 0.0 0.9572

angle_style harmonic
angle_coeff 1 0.0 104.52

